results_rootrelaxation/bin012_080_030.srr.sol
solution status: optimal solution found
objective value:                     16.0555555555556
_var738_                            0.277777777777778 	(obj:1)
_var756_                            0.222222222222222 	(obj:1)
_var761_                            0.222222222222223 	(obj:1)
_var762_                                          0.5 	(obj:0)
_var765_                            0.111111111111111 	(obj:1)
_var766_                            0.055555555555556 	(obj:2)
_var785_                             0.38888888888889 	(obj:2)
_var795_                            0.277777777777778 	(obj:0)
_var799_                            0.444444444444444 	(obj:1)
_var801_                            0.277777777777778 	(obj:2)
_var807_                            0.277777777777778 	(obj:2)
_var811_                           0.0555555555555551 	(obj:2)
_var812_                            0.166666666666667 	(obj:2)
_var813_                            0.555555555555556 	(obj:1)
_var819_                            0.333333333333333 	(obj:1)
_var839_                            0.111111111111112 	(obj:1)
_var844_                            0.111111111111111 	(obj:2)
_var852_                            0.166666666666667 	(obj:2)
_var858_                            0.111111111111111 	(obj:3)
_var859_                            0.277777777777778 	(obj:1)
_var861_                            0.111111111111111 	(obj:1)
_var864_                            0.222222222222222 	(obj:1)
_var873_                            0.388888888888889 	(obj:2)
_var878_                            0.444444444444444 	(obj:1)
_var880_                            0.111111111111112 	(obj:1)
_var883_                            0.333333333333333 	(obj:1)
_var885_                            0.444444444444444 	(obj:1)
_var887_                            0.166666666666667 	(obj:2)
_var890_                            0.388888888888888 	(obj:2)
_var896_                            0.277777777777777 	(obj:2)
_var897_                            0.333333333333333 	(obj:2)
_var898_                                          0.5 	(obj:2)
_var906_                            0.222222222222222 	(obj:2)
_var912_                            0.222222222222222 	(obj:2)
_var919_                            0.277777777777777 	(obj:1)
_var924_                            0.111111111111111 	(obj:1)
_var925_                            0.055555555555555 	(obj:2)
_var927_                            0.222222222222222 	(obj:2)
_var930_                            0.166666666666666 	(obj:2)
_var935_                            0.166666666666667 	(obj:2)
_var941_                            0.222222222222222 	(obj:2)
_var944_                           0.0555555555555559 	(obj:2)
_var945_                             0.11111111111111 	(obj:2)
_var946_                           0.0555555555555561 	(obj:2)
_var948_                            0.166666666666667 	(obj:1)
_var950_                            0.111111111111111 	(obj:3)
_var952_                            0.111111111111111 	(obj:3)
_var954_                           0.0555555555555556 	(obj:3)
